c1_10_5

VEHICLE
NUMBER   CAPACITY
250     200

CUSTOMER
CUST NO. XCOORD.  YCOORD.  DEMAND  READY TIME DUE DATE  SERVICE TIME

0   250    250     0     0    1824     0
268 319 468 10 250 391 90
118 325 466 40 616 772 90
28 374 489 20 269 389 90
574 322 468 20 533 667 90
210 323 471 30 433 581 90
636 384 491 20 848 998 90
897 326 466 30 737 832 90
527 382 498 10 601 688 90
973 378 493 30 419 495 90
6 322 465 10 226 335 90
747 380 489 20 1053 1175 90
980 319 470 10 338 487 90
147 387 488 20 952 1082 90
202 328 466 30 806 947 90
188 380 498 10 485 619 90
775 376 494 30 302 428 90
547 328 458 10 907 1043 90
245 381 495 20 675 800 90
793 381 494 10 768 888 90
